100
128
62
60
32
6
6
29
52
18
24
20
8
32
30
17
61
13
31
46
64
26
36
40
45
42
44
25
31
26
11
53
50
55
63
62
16
25
21
13
64
28
26
64
38
60
19
8
4
6
12
4
21
30
24
36
18
41
12
46
12
28
16
22
57
14
63
31
14
46
14
21
38
20
37
39
48
62
38
37
30
31
45
30
42
27
49
43
64
52
46
32
41
33
48
45
40
8
54
28
9
45